set N :=  1 2 3 4 5 6 7 8 9 10 11 12 13 14 15 16 17 18 19 20 21 22 23 24 25 26 27 28 29 30 31 32 33 34 35 36 37 38 39 40 41 42 43 44 45 46 47 48 49 50 51 52 53 54 55 56 57 58 59 60 61 62 63 64 65 ;

set M :=  1 2 3 4 5 6 7 8 9 10 11 12 13 ;

set T :=  1 2 3 4 5 6 7 8 9 10 11 12 13 14 15 16 17 18 19 20 21 22 23 24 ;

param arrival := 
    1 5
    2 5
    3 6
    4 10
    5 10
    6 7
    7 10
    8 11
    9 9
    10 7
    11 8
    12 8
    13 10
    14 8
    15 12
    16 12
    17 11
    18 7
    19 8
    20 9
    21 10
    22 7
    23 10
    24 8
    25 10
    26 6
    27 12
    28 6
    29 3
    30 11
    31 10
    32 5
    33 11
    34 11
    35 5
    36 3
    37 7
    38 10
    39 5
    40 10
    41 7
    42 11
    43 7
    44 6
    45 6
    46 6
    47 10
    48 4
    49 11
    50 7
    51 8
    52 6
    53 10
    54 6
    55 10
    56 7
    57 5
    58 12
    59 9
    60 11
    61 8
    62 6
    63 5
    64 8
    65 8
 ;

param depart := 
    1 18
    2 17
    3 17
    4 23
    5 19
    6 22
    7 22
    8 19
    9 22
    10 19
    11 17
    12 20
    13 18
    14 18
    15 16
    16 16
    17 18
    18 18
    19 23
    20 20
    21 20
    22 19
    23 20
    24 21
    25 21
    26 20
    27 18
    28 18
    29 20
    30 20
    31 21
    32 20
    33 19
    34 20
    35 21
    36 19
    37 23
    38 18
    39 20
    40 21
    41 17
    42 21
    43 18
    44 18
    45 24
    46 17
    47 22
    48 18
    49 21
    50 18
    51 20
    52 19
    53 21
    54 19
    55 20
    56 24
    57 20
    58 20
    59 23
    60 17
    61 21
    62 20
    63 21
    64 22
    65 22
 ;

param demand := 
    1 23
    2 17
    3 12
    4 24
    5 16
    6 14
    7 28
    8 14
    9 10
    10 19
    11 6
    12 9
    13 16
    14 33
    15 18
    16 41
    17 16
    18 16
    19 16
    20 10
    21 23
    22 16
    23 8
    24 23
    25 16
    26 24
    27 10
    28 21
    29 4
    30 26
    31 10
    32 14
    33 16
    34 16
    35 5
    36 15
    37 22
    38 46
    39 37
    40 33
    41 16
    42 13
    43 10
    44 11
    45 7
    46 31
    47 11
    48 7
    49 12
    50 16
    51 28
    52 10
    53 23
    54 16
    55 17
    56 16
    57 4
    58 16
    59 13
    60 24
    61 16
    62 16
    63 9
    64 16
    65 32
 ;

param installed_chargers := 
 1 4
 2 4
 3 8
 4 8
 5 8
 6 8
 7 8
 8 8
 9 19
 10 19
 11 19
 12 19
 13 19
 ;

param installed_cost := 
 1 1000
 2 1000
 3 1500
 4 1500
 5 1500
 6 1500
 7 1500
 8 1500
 9 2200
 10 2200
 11 2200
 12 2200
 13 2200
 ;

param POWER := 
    1 1 4
    2 1 4
    3 1 4
    4 1 4
    5 1 4
    6 1 4
    7 1 4
    8 1 4
    9 1 4
    10 1 4
    11 1 4
    12 1 4
    13 1 4
    14 1 4
    15 1 4
    16 1 4
    17 1 4
    18 1 4
    19 1 4
    20 1 4
    21 1 4
    22 1 4
    23 1 4
    24 1 4
    25 1 4
    26 1 4
    27 1 4
    28 1 4
    29 1 4
    30 1 4
    31 1 4
    32 1 4
    33 1 4
    34 1 4
    35 1 4
    36 1 4
    37 1 4
    38 1 4
    39 1 4
    40 1 4
    41 1 4
    42 1 4
    43 1 4
    44 1 4
    45 1 4
    46 1 4
    47 1 4
    48 1 4
    49 1 4
    50 1 4
    51 1 4
    52 1 4
    53 1 4
    54 1 4
    55 1 4
    56 1 4
    57 1 4
    58 1 4
    59 1 4
    60 1 4
    61 1 4
    62 1 4
    63 1 4
    64 1 4
    65 1 4
    1 2 4
    2 2 4
    3 2 4
    4 2 4
    5 2 4
    6 2 4
    7 2 4
    8 2 4
    9 2 4
    10 2 4
    11 2 4
    12 2 4
    13 2 4
    14 2 4
    15 2 4
    16 2 4
    17 2 4
    18 2 4
    19 2 4
    20 2 4
    21 2 4
    22 2 4
    23 2 4
    24 2 4
    25 2 4
    26 2 4
    27 2 4
    28 2 4
    29 2 4
    30 2 4
    31 2 4
    32 2 4
    33 2 4
    34 2 4
    35 2 4
    36 2 4
    37 2 4
    38 2 4
    39 2 4
    40 2 4
    41 2 4
    42 2 4
    43 2 4
    44 2 4
    45 2 4
    46 2 4
    47 2 4
    48 2 4
    49 2 4
    50 2 4
    51 2 4
    52 2 4
    53 2 4
    54 2 4
    55 2 4
    56 2 4
    57 2 4
    58 2 4
    59 2 4
    60 2 4
    61 2 4
    62 2 4
    63 2 4
    64 2 4
    65 2 4
    1 3 8
    2 3 8
    3 3 8
    4 3 8
    5 3 8
    6 3 8
    7 3 8
    8 3 8
    9 3 8
    10 3 8
    11 3 8
    12 3 8
    13 3 8
    14 3 8
    15 3 8
    16 3 8
    17 3 8
    18 3 8
    19 3 8
    20 3 8
    21 3 8
    22 3 8
    23 3 8
    24 3 8
    25 3 8
    26 3 8
    27 3 8
    28 3 8
    29 3 8
    30 3 8
    31 3 8
    32 3 8
    33 3 8
    34 3 8
    35 3 8
    36 3 8
    37 3 8
    38 3 8
    39 3 8
    40 3 8
    41 3 8
    42 3 8
    43 3 8
    44 3 8
    45 3 8
    46 3 8
    47 3 8
    48 3 8
    49 3 8
    50 3 8
    51 3 8
    52 3 8
    53 3 8
    54 3 8
    55 3 8
    56 3 8
    57 3 8
    58 3 8
    59 3 8
    60 3 8
    61 3 8
    62 3 8
    63 3 8
    64 3 8
    65 3 8
    1 4 8
    2 4 8
    3 4 8
    4 4 8
    5 4 8
    6 4 8
    7 4 8
    8 4 8
    9 4 8
    10 4 8
    11 4 8
    12 4 8
    13 4 8
    14 4 8
    15 4 8
    16 4 8
    17 4 8
    18 4 8
    19 4 8
    20 4 8
    21 4 8
    22 4 8
    23 4 8
    24 4 8
    25 4 8
    26 4 8
    27 4 8
    28 4 8
    29 4 8
    30 4 8
    31 4 8
    32 4 8
    33 4 8
    34 4 8
    35 4 8
    36 4 8
    37 4 8
    38 4 8
    39 4 8
    40 4 8
    41 4 8
    42 4 8
    43 4 8
    44 4 8
    45 4 8
    46 4 8
    47 4 8
    48 4 8
    49 4 8
    50 4 8
    51 4 8
    52 4 8
    53 4 8
    54 4 8
    55 4 8
    56 4 8
    57 4 8
    58 4 8
    59 4 8
    60 4 8
    61 4 8
    62 4 8
    63 4 8
    64 4 8
    65 4 8
    1 5 8
    2 5 8
    3 5 8
    4 5 8
    5 5 8
    6 5 8
    7 5 8
    8 5 8
    9 5 8
    10 5 8
    11 5 8
    12 5 8
    13 5 8
    14 5 8
    15 5 8
    16 5 8
    17 5 8
    18 5 8
    19 5 8
    20 5 8
    21 5 8
    22 5 8
    23 5 8
    24 5 8
    25 5 8
    26 5 8
    27 5 8
    28 5 8
    29 5 8
    30 5 8
    31 5 8
    32 5 8
    33 5 8
    34 5 8
    35 5 8
    36 5 8
    37 5 8
    38 5 8
    39 5 8
    40 5 8
    41 5 8
    42 5 8
    43 5 8
    44 5 8
    45 5 8
    46 5 8
    47 5 8
    48 5 8
    49 5 8
    50 5 8
    51 5 8
    52 5 8
    53 5 8
    54 5 8
    55 5 8
    56 5 8
    57 5 8
    58 5 8
    59 5 8
    60 5 8
    61 5 8
    62 5 8
    63 5 8
    64 5 8
    65 5 8
    1 6 8
    2 6 8
    3 6 8
    4 6 8
    5 6 8
    6 6 8
    7 6 8
    8 6 8
    9 6 8
    10 6 8
    11 6 8
    12 6 8
    13 6 8
    14 6 8
    15 6 8
    16 6 8
    17 6 8
    18 6 8
    19 6 8
    20 6 8
    21 6 8
    22 6 8
    23 6 8
    24 6 8
    25 6 8
    26 6 8
    27 6 8
    28 6 8
    29 6 8
    30 6 8
    31 6 8
    32 6 8
    33 6 8
    34 6 8
    35 6 8
    36 6 8
    37 6 8
    38 6 8
    39 6 8
    40 6 8
    41 6 8
    42 6 8
    43 6 8
    44 6 8
    45 6 8
    46 6 8
    47 6 8
    48 6 8
    49 6 8
    50 6 8
    51 6 8
    52 6 8
    53 6 8
    54 6 8
    55 6 8
    56 6 8
    57 6 8
    58 6 8
    59 6 8
    60 6 8
    61 6 8
    62 6 8
    63 6 8
    64 6 8
    65 6 8
    1 7 8
    2 7 8
    3 7 8
    4 7 8
    5 7 8
    6 7 8
    7 7 8
    8 7 8
    9 7 8
    10 7 8
    11 7 8
    12 7 8
    13 7 8
    14 7 8
    15 7 8
    16 7 8
    17 7 8
    18 7 8
    19 7 8
    20 7 8
    21 7 8
    22 7 8
    23 7 8
    24 7 8
    25 7 8
    26 7 8
    27 7 8
    28 7 8
    29 7 8
    30 7 8
    31 7 8
    32 7 8
    33 7 8
    34 7 8
    35 7 8
    36 7 8
    37 7 8
    38 7 8
    39 7 8
    40 7 8
    41 7 8
    42 7 8
    43 7 8
    44 7 8
    45 7 8
    46 7 8
    47 7 8
    48 7 8
    49 7 8
    50 7 8
    51 7 8
    52 7 8
    53 7 8
    54 7 8
    55 7 8
    56 7 8
    57 7 8
    58 7 8
    59 7 8
    60 7 8
    61 7 8
    62 7 8
    63 7 8
    64 7 8
    65 7 8
    1 8 8
    2 8 8
    3 8 8
    4 8 8
    5 8 8
    6 8 8
    7 8 8
    8 8 8
    9 8 8
    10 8 8
    11 8 8
    12 8 8
    13 8 8
    14 8 8
    15 8 8
    16 8 8
    17 8 8
    18 8 8
    19 8 8
    20 8 8
    21 8 8
    22 8 8
    23 8 8
    24 8 8
    25 8 8
    26 8 8
    27 8 8
    28 8 8
    29 8 8
    30 8 8
    31 8 8
    32 8 8
    33 8 8
    34 8 8
    35 8 8
    36 8 8
    37 8 8
    38 8 8
    39 8 8
    40 8 8
    41 8 8
    42 8 8
    43 8 8
    44 8 8
    45 8 8
    46 8 8
    47 8 8
    48 8 8
    49 8 8
    50 8 8
    51 8 8
    52 8 8
    53 8 8
    54 8 8
    55 8 8
    56 8 8
    57 8 8
    58 8 8
    59 8 8
    60 8 8
    61 8 8
    62 8 8
    63 8 8
    64 8 8
    65 8 8
    1 9 19
    2 9 19
    3 9 19
    4 9 19
    5 9 8
    6 9 8
    7 9 19
    8 9 8
    9 9 19
    10 9 19
    11 9 8
    12 9 19
    13 9 8
    14 9 19
    15 9 19
    16 9 19
    17 9 8
    18 9 8
    19 9 8
    20 9 19
    21 9 19
    22 9 8
    23 9 19
    24 9 19
    25 9 8
    26 9 19
    27 9 8
    28 9 19
    29 9 8
    30 9 19
    31 9 19
    32 9 19
    33 9 19
    34 9 8
    35 9 8
    36 9 8
    37 9 19
    38 9 19
    39 9 19
    40 9 19
    41 9 19
    42 9 8
    43 9 8
    44 9 8
    45 9 19
    46 9 19
    47 9 8
    48 9 19
    49 9 19
    50 9 8
    51 9 19
    52 9 8
    53 9 19
    54 9 8
    55 9 19
    56 9 19
    57 9 8
    58 9 19
    59 9 8
    60 9 19
    61 9 8
    62 9 19
    63 9 8
    64 9 8
    65 9 19
    1 10 19
    2 10 19
    3 10 19
    4 10 19
    5 10 8
    6 10 8
    7 10 19
    8 10 8
    9 10 19
    10 10 19
    11 10 8
    12 10 19
    13 10 8
    14 10 19
    15 10 19
    16 10 19
    17 10 8
    18 10 8
    19 10 8
    20 10 19
    21 10 19
    22 10 8
    23 10 19
    24 10 19
    25 10 8
    26 10 19
    27 10 8
    28 10 19
    29 10 8
    30 10 19
    31 10 19
    32 10 19
    33 10 19
    34 10 8
    35 10 8
    36 10 8
    37 10 19
    38 10 19
    39 10 19
    40 10 19
    41 10 19
    42 10 8
    43 10 8
    44 10 8
    45 10 19
    46 10 19
    47 10 8
    48 10 19
    49 10 19
    50 10 8
    51 10 19
    52 10 8
    53 10 19
    54 10 8
    55 10 19
    56 10 19
    57 10 8
    58 10 19
    59 10 8
    60 10 19
    61 10 8
    62 10 19
    63 10 8
    64 10 8
    65 10 19
    1 11 19
    2 11 19
    3 11 19
    4 11 19
    5 11 8
    6 11 8
    7 11 19
    8 11 8
    9 11 19
    10 11 19
    11 11 8
    12 11 19
    13 11 8
    14 11 19
    15 11 19
    16 11 19
    17 11 8
    18 11 8
    19 11 8
    20 11 19
    21 11 19
    22 11 8
    23 11 19
    24 11 19
    25 11 8
    26 11 19
    27 11 8
    28 11 19
    29 11 8
    30 11 19
    31 11 19
    32 11 19
    33 11 19
    34 11 8
    35 11 8
    36 11 8
    37 11 19
    38 11 19
    39 11 19
    40 11 19
    41 11 19
    42 11 8
    43 11 8
    44 11 8
    45 11 19
    46 11 19
    47 11 8
    48 11 19
    49 11 19
    50 11 8
    51 11 19
    52 11 8
    53 11 19
    54 11 8
    55 11 19
    56 11 19
    57 11 8
    58 11 19
    59 11 8
    60 11 19
    61 11 8
    62 11 19
    63 11 8
    64 11 8
    65 11 19
    1 12 19
    2 12 19
    3 12 19
    4 12 19
    5 12 8
    6 12 8
    7 12 19
    8 12 8
    9 12 19
    10 12 19
    11 12 8
    12 12 19
    13 12 8
    14 12 19
    15 12 19
    16 12 19
    17 12 8
    18 12 8
    19 12 8
    20 12 19
    21 12 19
    22 12 8
    23 12 19
    24 12 19
    25 12 8
    26 12 19
    27 12 8
    28 12 19
    29 12 8
    30 12 19
    31 12 19
    32 12 19
    33 12 19
    34 12 8
    35 12 8
    36 12 8
    37 12 19
    38 12 19
    39 12 19
    40 12 19
    41 12 19
    42 12 8
    43 12 8
    44 12 8
    45 12 19
    46 12 19
    47 12 8
    48 12 19
    49 12 19
    50 12 8
    51 12 19
    52 12 8
    53 12 19
    54 12 8
    55 12 19
    56 12 19
    57 12 8
    58 12 19
    59 12 8
    60 12 19
    61 12 8
    62 12 19
    63 12 8
    64 12 8
    65 12 19
    1 13 19
    2 13 19
    3 13 19
    4 13 19
    5 13 8
    6 13 8
    7 13 19
    8 13 8
    9 13 19
    10 13 19
    11 13 8
    12 13 19
    13 13 8
    14 13 19
    15 13 19
    16 13 19
    17 13 8
    18 13 8
    19 13 8
    20 13 19
    21 13 19
    22 13 8
    23 13 19
    24 13 19
    25 13 8
    26 13 19
    27 13 8
    28 13 19
    29 13 8
    30 13 19
    31 13 19
    32 13 19
    33 13 19
    34 13 8
    35 13 8
    36 13 8
    37 13 19
    38 13 19
    39 13 19
    40 13 19
    41 13 19
    42 13 8
    43 13 8
    44 13 8
    45 13 19
    46 13 19
    47 13 8
    48 13 19
    49 13 19
    50 13 8
    51 13 19
    52 13 8
    53 13 19
    54 13 8
    55 13 19
    56 13 19
    57 13 8
    58 13 19
    59 13 8
    60 13 19
    61 13 8
    62 13 19
    63 13 8
    64 13 8
    65 13 19
 ;

